25
1 0 44
2 0 65
2 1 14
3 0 18
3 1 64
3 2 31
4 0 30
4 1 2
4 2 22
4 3 37
5 0 29
5 1 93
5 2 37
5 3 54
5 4 19
6 0 77
6 1 6
6 2 77
6 3 29
6 4 22
6 5 86
7 0 18
7 1 63
7 2 70
7 3 10
7 4 40
7 5 81
7 6 21
8 0 77
8 1 91
8 2 80
8 3 100
8 4 8
8 5 39
8 6 45
8 7 79
9 0 68
9 1 4
9 2 25
9 3 7
9 4 91
9 5 40
9 6 51
9 7 84
9 8 62
10 0 19
10 1 69
10 2 55
10 3 33
10 4 12
10 5 99
10 6 28
10 7 93
10 8 79
10 9 17
11 0 41
11 1 3
11 2 95
11 3 19
11 4 27
11 5 81
11 6 96
11 7 29
11 8 50
11 9 85
11 10 16
12 0 48
12 1 20
12 2 29
12 3 25
12 4 67
12 5 4
12 6 50
12 7 29
12 8 75
12 9 86
12 10 84
12 11 66
13 0 47
13 1 59
13 2 34
13 3 5
13 4 98
13 5 32
13 6 38
13 7 57
13 8 20
13 9 1
13 10 66
13 11 32
13 12 54
14 0 9
14 1 4
14 2 2
14 3 55
14 4 91
14 5 3
14 6 78
14 7 59
14 8 94
14 9 13
14 10 79
14 11 53
14 12 99
14 13 12
15 0 66
15 1 14
15 2 98
15 3 4
15 4 85
15 5 59
15 6 97
15 7 65
15 8 3
15 9 30
15 10 48
15 11 31
15 12 69
15 13 10
15 14 38
16 0 82
16 1 20
16 2 21
16 3 82
16 4 52
16 5 97
16 6 81
16 7 93
16 8 75
16 9 75
16 10 3
16 11 32
16 12 46
16 13 97
16 14 63
16 15 74
17 0 51
17 1 66
17 2 74
17 3 12
17 4 11
17 5 50
17 6 42
17 7 14
17 8 19
17 9 97
17 10 95
17 11 91
17 12 90
17 13 55
17 14 6
17 15 39
17 16 41
18 0 60
18 1 48
18 2 81
18 3 68
18 4 33
18 5 58
18 6 90
18 7 98
18 8 80
18 9 3
18 10 3
18 11 13
18 12 18
18 13 59
18 14 37
18 15 4
18 16 55
18 17 59
19 0 69
19 1 78
19 2 81
19 3 67
19 4 47
19 5 25
19 6 77
19 7 89
19 8 41
19 9 43
19 10 35
19 11 14
19 12 48
19 13 48
19 14 42
19 15 62
19 16 13
19 17 34
19 18 80
20 0 77
20 1 35
20 2 59
20 3 37
20 4 80
20 5 59
20 6 66
20 7 34
20 8 90
20 9 78
20 10 70
20 11 21
20 12 70
20 13 7
20 14 69
20 15 88
20 16 44
20 17 78
20 18 54
20 19 83
21 0 7
21 1 91
21 2 39
21 3 62
21 4 27
21 5 16
21 6 26
21 7 92
21 8 93
21 9 14
21 10 72
21 11 81
21 12 67
21 13 52
21 14 38
21 15 19
21 16 55
21 17 94
21 18 22
21 19 45
21 20 95
22 0 23
22 1 18
22 2 69
22 3 12
22 4 21
22 5 40
22 6 30
22 7 19
22 8 85
22 9 18
22 10 60
22 11 49
22 12 98
22 13 41
22 14 74
22 15 30
22 16 53
22 17 14
22 18 28
22 19 70
22 20 99
22 21 49
23 0 99
23 1 96
23 2 87
23 3 7
23 4 82
23 5 56
23 6 95
23 7 70
23 8 16
23 9 3
23 10 83
23 11 86
23 12 70
23 13 94
23 14 10
23 15 47
23 16 66
23 17 87
23 18 98
23 19 79
23 20 8
23 21 21
23 22 42
24 0 39
24 1 49
24 2 1
24 3 85
24 4 76
24 5 16
24 6 35
24 7 16
24 8 81
24 9 76
24 10 81
24 11 66
24 12 41
24 13 11
24 14 19
24 15 97
24 16 73
24 17 25
24 18 43
24 19 10
24 20 87
24 21 20
24 22 37
24 23 34
